Instance: Data/Instances_txt/inst_60_50_2.txt
SetUpTime: 51.021859884262085

Gurobi 10.0.1 (mac64[x86]) logging started Di  1 Aug 16:36:48 2023

Set parameter LogFile to value "Output/MILP_inst_60_50_2_2023-08-01_16-28-50.txt"
Set parameter TimeLimit to value 2700

Gurobi 10.0.1 (mac64[x86]) logging started Di  1 Aug 16:36:48 2023

Set parameter LogFile to value "Output/MILP_inst_60_50_2_2023-08-01_16-28-50.txt"
Gurobi Optimizer version 10.0.1 build v10.0.1rc0 (mac64[x86])

CPU model: Intel(R) Core(TM) i5-1038NG7 CPU @ 2.00GHz
Thread count: 4 physical cores, 8 logical processors, using up to 8 threads

Optimize a model with 121 rows, 54013 columns and 551376 nonzeros
Model fingerprint: 0xb75cdad6
Variable types: 0 continuous, 54013 integer (0 binary)
Coefficient statistics:
  Matrix range     [1e+00, 1e+00]
  Objective range  [6e+00, 6e+03]
  Bounds range     [1e+00, 1e+00]
  RHS range        [1e+00, 1e+00]
Presolve removed 0 rows and 78 columns
Presolve time: 1.29s
Presolved: 121 rows, 53935 columns, 550480 nonzeros
Variable types: 0 continuous, 53935 integer (53935 binary)

Root relaxation: objective 1.006276e+04, 1999 iterations, 2.27 seconds (3.41 work units)

    Nodes    |    Current Node    |     Objective Bounds      |     Work
 Expl Unexpl |  Obj  Depth IntInf | Incumbent    BestBd   Gap | It/Node Time

     0     0 10062.7594    0   85          - 10062.7594      -     -    4s
     0     0 10065.7172    0   89          - 10065.7172      -     -    4s
H    0     0                    14181.000000 10065.7172  29.0%     -    5s
H    0     0                    13595.000000 10065.7172  26.0%     -   11s
H    0     0                    10430.000000 10065.7172  3.49%     -   11s
H    0     0                    10400.000000 10065.7172  3.21%     -   11s
     0     0 10117.8797    0   98 10400.0000 10117.8797  2.71%     -   12s
     0     0 10155.3916    0   75 10400.0000 10155.3916  2.35%     -   19s
     0     0 10155.5115    0   75 10400.0000 10155.5115  2.35%     -   19s
     0     0 10155.8056    0   66 10400.0000 10155.8056  2.35%     -   19s
H    0     0                    10314.000000 10155.8056  1.53%     -   20s
     0     0 10214.7004    0   82 10314.0000 10214.7004  0.96%     -   20s
     0     0 10214.7004    0   54 10314.0000 10214.7004  0.96%     -   21s
     0     0 10214.7004    0   81 10314.0000 10214.7004  0.96%     -   21s
     0     0 10214.7004    0   72 10314.0000 10214.7004  0.96%     -   21s
     0     0 10214.7004    0   81 10314.0000 10214.7004  0.96%     -   21s
     0     0 10214.7004    0   56 10314.0000 10214.7004  0.96%     -   21s
     0     0 10214.7004    0   86 10314.0000 10214.7004  0.96%     -   21s
     0     0 10214.7004    0   86 10314.0000 10214.7004  0.96%     -   21s
     0     0 10214.7004    0   64 10314.0000 10214.7004  0.96%     -   21s
     0     0 10214.7004    0   65 10314.0000 10214.7004  0.96%     -   21s
     0     0 10214.7004    0   71 10314.0000 10214.7004  0.96%     -   21s
     0     0 10214.7004    0   75 10314.0000 10214.7004  0.96%     -   21s
     0     0 10242.4097    0   94 10314.0000 10242.4097  0.69%     -   21s
     0     0 10247.1517    0   96 10314.0000 10247.1517  0.65%     -   21s
     0     0 10248.9740    0   98 10314.0000 10248.9740  0.63%     -   21s
     0     0 10249.7341    0  105 10314.0000 10249.7341  0.62%     -   21s
     0     0 10250.7643    0   80 10314.0000 10250.7643  0.61%     -   21s
     0     0 10250.8230    0   90 10314.0000 10250.8230  0.61%     -   21s
     0     0 10251.3663    0   95 10314.0000 10251.3663  0.61%     -   21s
     0     0 10251.4670    0   87 10314.0000 10251.4670  0.61%     -   21s
     0     0 10251.7684    0   91 10314.0000 10251.7684  0.60%     -   21s
     0     0 10251.8090    0   84 10314.0000 10251.8090  0.60%     -   21s
     0     0 10251.8222    0   91 10314.0000 10251.8222  0.60%     -   21s
     0     0 10255.6926    0   91 10314.0000 10255.6926  0.57%     -   21s
     0     0 10256.4423    0   90 10314.0000 10256.4423  0.56%     -   21s
     0     0 10256.6307    0   97 10314.0000 10256.6307  0.56%     -   21s
     0     0 10256.7107    0   88 10314.0000 10256.7107  0.56%     -   21s
     0     0 10256.7691    0   91 10314.0000 10256.7691  0.55%     -   21s
     0     0 10256.7770    0   90 10314.0000 10256.7770  0.55%     -   21s
     0     0 10256.8070    0   91 10314.0000 10256.8070  0.55%     -   21s
     0     0 10256.8144    0   91 10314.0000 10256.8144  0.55%     -   21s
     0     0 10256.8145    0   91 10314.0000 10256.8145  0.55%     -   21s
     0     0 10257.0282    0   99 10314.0000 10257.0282  0.55%     -   21s
     0     0 10257.0370    0   99 10314.0000 10257.0370  0.55%     -   21s
     0     0 10257.0445    0   99 10314.0000 10257.0445  0.55%     -   21s
     0     0 10257.0445    0  100 10314.0000 10257.0445  0.55%     -   21s
     0     0 10286.6173    0  127 10314.0000 10286.6173  0.27%     -   22s

Cutting planes:
  Clique: 22
  Zero half: 2
  RLT: 88

Explored 1 nodes (8446 simplex iterations) in 22.06 seconds (23.91 work units)
Thread count was 8 (of 8 available processors)

Solution count 5: 10314 10400 10430 ... 14181

Optimal solution found (tolerance 1.00e-04)
Best objective 1.031400000000e+04, best bound 1.031400000000e+04, gap 0.0000%

User-callback calls 3378, time in user-callback 0.01 sec

=========================

OUTPUT STATISTICS
Relaxed: false
Time since start: 74.52802085876465
SetUpTime: 51.021859884262085
Objective value: 10314.0
Number of variables: 54013
Solving time: 23.478469133377075
